/*********************************************
    * Lab01 - simple
    * Author: Coso
    * Creation Date: Mar, 2019
    *********************************************/
instance_name = "small_instance_17_simple";

d = 2;
r = 3;

SCj = [107 106];
Dk = [86 19 10];

Cjk = [[86 76 77]
 [74 31 85]];
